db/data/11987163231069724434271295469570311769.z3.out
sat
-------------------
3.772122336
